
Gurobi 7.0.2 (linux64, Python) logging started Wed May 10 17:31:54 2017


Gurobi 7.0.2 (linux64, Python) logging started Wed May 10 20:32:37 2017


Gurobi 7.0.2 (linux64, Python) logging started Wed May 10 22:08:27 2017


Gurobi 7.0.2 (linux64, Python) logging started Wed May 10 23:43:32 2017


Gurobi 7.0.2 (linux64, Python) logging started Thu May 11 01:58:31 2017


Gurobi 7.0.2 (linux64, Python) logging started Thu May 11 03:59:13 2017


Gurobi 7.0.2 (linux64, Python) logging started Thu May 11 06:06:41 2017


Gurobi 7.0.2 (linux64, Python) logging started Thu May 11 07:51:40 2017


Gurobi 7.0.2 (linux64, Python) logging started Thu May 11 14:17:08 2017


Gurobi 7.0.2 (linux64, Python) logging started Thu May 11 19:22:04 2017


Gurobi 7.0.2 (linux64, Python) logging started Thu May 11 20:54:26 2017


Gurobi 7.0.2 (linux64, Python) logging started Thu May 11 22:23:05 2017


Gurobi 7.0.2 (linux64, Python) logging started Fri May 12 00:00:26 2017


Gurobi 7.0.2 (linux64, Python) logging started Fri May 12 01:32:55 2017


Gurobi 7.0.2 (linux64, Python) logging started Fri May 12 03:07:16 2017


Gurobi 7.0.2 (linux64, Python) logging started Fri May 12 04:31:33 2017

